Ba1 Ti1 O3
1.0
   46.0373764039999998   0.0000000000000000   0.0000000000000000   
   0.0000000000000000   5.7884602547000004   0.0000000000000000   
   0.0000000000000000   0.0336893554000000   4.0809919278000004   
    O   Ti   Ba
   48   16   16   
Direct
0.0000000000000000   0.5000000000000000   0.0000000000000000   
0.1250000000000000   0.4825499950000000   0.9716839790000000   
0.2500000000000000   0.4825499950000000   0.9716839790000000   
0.3750000000000000   0.4825499950000000   0.9716839790000000   
0.5000000000000000   0.5000000000000000   0.0000000000000000   
0.6250000000000000   0.5174500049999999   0.0283160210000000   
0.7500000000000000   0.5174500049999999   0.0283160210000000   
0.8750000000000000   0.5174500049999999   0.0283160210000000   
0.0625000000000000   0.9825500250000000   0.9716839790000000   
0.1875000000000000   0.9825500250000000   0.9716839790000000   
0.3125000000000000   0.9825500250000000   0.9716839790000000   
0.4375000000000000   0.9825500250000000   0.9716839790000000   
0.5625000000000000   0.0174499750000000   0.0283160210000000   
0.6875000000000000   0.0174499750000000   0.0283160210000000   
0.8125000000000000   0.0174499750000000   0.0283160210000000   
0.9375000000000000   0.0174499750000000   0.0283160210000000   
0.0944291278750000   0.7271170020000000   0.4825499950000000   
0.2194291278750000   0.7271170020000000   0.4825499950000000   
0.3444291278750000   0.7271170020000000   0.4825499950000000   
0.4694291278750000   0.7271170020000000   0.4825499950000000   
0.5944291278750000   0.2728829980000000   0.5174500049999999   
0.7194291278750000   0.2728829980000000   0.5174500049999999   
0.8444291278750000   0.2728829980000000   0.5174500049999999   
0.9694291278750000   0.2728829980000000   0.5174500049999999   
0.0319291278750000   0.2271170020000000   0.4825499950000000   
0.1569291278750000   0.2271170020000000   0.4825499950000000   
0.2819291278750000   0.2271170020000000   0.4825499950000000   
0.4069291278750000   0.2271170020000000   0.4825499950000000   
0.5319291278750000   0.7728829980000000   0.5174500049999999   
0.6569291278750000   0.7728829980000000   0.5174500049999999   
0.7819291278750000   0.7728829980000000   0.5174500049999999   
0.9069291278750000   0.7728829980000000   0.5174500049999999   
0.0305708740000000   0.7271170020000000   0.4825499950000000   
0.1555708740000000   0.7271170020000000   0.4825499950000000   
0.2805708740000000   0.7271170020000000   0.4825499950000000   
0.4055708740000000   0.7271170020000000   0.4825499950000000   
0.5305708740000000   0.2728829980000000   0.5174500049999999   
0.6555708740000000   0.2728829980000000   0.5174500049999999   
0.7805708740000000   0.2728829980000000   0.5174500049999999   
0.9055708740000000   0.2728829980000000   0.5174500049999999   
0.0930708721250000   0.2271170020000000   0.4825499950000000   
0.2180708721250000   0.2271170020000000   0.4825499950000000   
0.3430708721250000   0.2271170020000000   0.4825499950000000   
0.4680708721250000   0.2271170020000000   0.4825499950000000   
0.5930708721250000   0.7728829980000000   0.5174500049999999   
0.7180708721250000   0.7728829980000000   0.5174500049999999   
0.8430708721250000   0.7728829980000000   0.5174500049999999   
0.9680708721250000   0.7728829980000000   0.5174500049999999   
0.0000000000000000   0.5000000000000000   0.5000000000000000   
0.1250000000000000   0.5143709780000000   0.5143709780000000   
0.2500000000000000   0.5143709780000000   0.5143709780000000   
0.3750000000000000   0.5143709780000000   0.5143709780000000   
0.5000000000000000   0.5000000000000000   0.5000000000000000   
0.6250000000000000   0.4856290220000000   0.4856290220000000   
0.7500000000000000   0.4856290220000000   0.4856290220000000   
0.8750000000000000   0.4856290220000000   0.4856290220000000   
0.0625000000000000   0.0143709780000000   0.5143709780000000   
0.1875000000000000   0.0143709780000000   0.5143709780000000   
0.3125000000000000   0.0143709780000000   0.5143709780000000   
0.4375000000000000   0.0143709780000000   0.5143709780000000   
0.5625000000000000   0.9856290220000000   0.4856290220000000   
0.6875000000000000   0.9856290220000000   0.4856290220000000   
0.8125000000000000   0.9856290220000000   0.4856290220000000   
0.9375000000000000   0.9856290220000000   0.4856290220000000   
0.0000000000000000   0.0000000000000000   0.0000000000000000   
0.1250000000000000   0.0000000000000000   0.0000000000000000   
0.2500000000000000   0.0000000000000000   0.0000000000000000   
0.3750000000000000   0.0000000000000000   0.0000000000000000   
0.5000000000000000   0.0000000000000000   0.0000000000000000   
0.6250000000000000   0.0000000000000000   0.0000000000000000   
0.7500000000000000   0.0000000000000000   0.0000000000000000   
0.8750000000000000   0.0000000000000000   0.0000000000000000   
0.0625000000000000   0.5000000000000000   0.0000000000000000   
0.1875000000000000   0.5000000000000000   0.0000000000000000   
0.3125000000000000   0.5000000000000000   0.0000000000000000   
0.4375000000000000   0.5000000000000000   0.0000000000000000   
0.5625000000000000   0.5000000000000000   0.0000000000000000   
0.6875000000000000   0.5000000000000000   0.0000000000000000   
0.8125000000000000   0.5000000000000000   0.0000000000000000   
0.9375000000000000   0.5000000000000000   0.0000000000000000   
