str.cell
   1.00000000000000
   15.9452650196635322   0.0000000000000000   0.0000000000000000   
   0.0000000000000000   15.9452650196635322   0.0000000000000000   
   0.0000000000000000   0.0000000000000000   4.0321616359809260   
   O    Ti   Pb
   51   17   17   
Direct
0.2058823529411765   0.1764705882352942   0.3982579560000000   
0.1470588235294118   0.4117647058823530   0.3982579560000000   
0.0882352941176471   0.6470588235294119   0.3982579560000000   
0.0294117647058823   0.8823529411764709   0.3982579560000000   
0.5000000000000001   0.0000000000000000   0.3982579560000000   
0.4411764705882353   0.2352941176470588   0.3982579560000000   
0.3823529411764706   0.4705882352941177   0.3982579560000000   
0.3235294117647059   0.7058823529411766   0.3982579560000000   
0.2647058823529411   0.9411764705882356   0.3982579560000000   
0.7352941176470589   0.0588235294117647   0.3982579560000000   
0.6764705882352942   0.2941176470588236   0.3982579560000000   
0.6176470588235294   0.5294117647058825   0.3982579560000000   
0.5588235294117647   0.7647058823529412   0.3982579560000000   
0.9705882352941181   0.1176470588235294   0.3982579560000000   
0.9117647058823534   0.3529411764705883   0.3982579560000000   
0.8529411764705886   0.5882352941176472   0.3982579560000000   
0.7941176470588238   0.8235294117647060   0.3982579560000000   
0.1176470588235295   0.0294117647058824   0.3982579560000000   
0.0588235294117648   0.2647058823529411   0.3982579560000000   
0.0000000000000001   0.5000000000000001   0.3982579560000000   
0.3529411764705884   0.0882352941176471   0.3982579560000000   
0.2941176470588237   0.3235294117647058   0.3982579560000000   
0.2352941176470589   0.5588235294117647   0.3982579560000000   
0.1764705882352942   0.7941176470588238   0.3982579560000000   
0.5882352941176472   0.1470588235294118   0.3982579560000000   
0.5294117647058825   0.3823529411764705   0.3982579560000000   
0.4705882352941177   0.6176470588235294   0.3982579560000000   
0.4117647058823530   0.8529411764705886   0.3982579560000000   
0.8235294117647060   0.2058823529411765   0.3982579560000000   
0.7647058823529412   0.4411764705882353   0.3982579560000000   
0.7058823529411766   0.6764705882352942   0.3982579560000000   
0.6470588235294119   0.9117647058823534   0.3982579560000000   
0.9411764705882356   0.7352941176470589   0.3982579560000000   
0.8823529411764709   0.9705882352941181   0.3982579560000000   
0.0882352941176471   0.1470588235294118   0.9117559669999999   
0.0294117647058824   0.3823529411764706   0.9117559669999999   
0.3235294117647060   0.2058823529411765   0.9117559669999999   
0.2647058823529413   0.4411764705882353   0.9117559669999999   
0.2058823529411765   0.6764705882352942   0.9117559669999999   
0.1470588235294118   0.9117647058823534   0.9117559669999999   
0.6176470588235294   0.0294117647058824   0.9117559669999999   
0.5588235294117647   0.2647058823529412   0.9117559669999999   
0.5000000000000001   0.5000000000000001   0.9117559669999999   
0.4411764705882354   0.7352941176470589   0.9117559669999999   
0.3823529411764707   0.9705882352941181   0.9117559669999999   
0.8529411764705884   0.0882352941176471   0.9117559669999999   
0.7941176470588237   0.3235294117647060   0.9117559669999999   
0.7352941176470589   0.5588235294117647   0.9117559669999999   
0.6764705882352942   0.7941176470588237   0.9117559669999999   
0.9705882352941181   0.6176470588235294   0.9117559669999999   
0.9117647058823534   0.8529411764705884   0.9117559669999999   
0.0882352941176471   0.1470588235294118   0.4665249610000000   
0.0294117647058824   0.3823529411764706   0.4665249610000000   
0.3235294117647060   0.2058823529411765   0.4665249610000000   
0.2647058823529413   0.4411764705882353   0.4665249610000000   
0.2058823529411765   0.6764705882352942   0.4665249610000000   
0.1470588235294118   0.9117647058823534   0.4665249610000000   
0.6176470588235294   0.0294117647058824   0.4665249610000000   
0.5588235294117647   0.2647058823529412   0.4665249610000000   
0.5000000000000001   0.5000000000000001   0.4665249610000000   
0.4411764705882354   0.7352941176470589   0.4665249610000000   
0.3823529411764707   0.9705882352941181   0.4665249610000000   
0.8529411764705884   0.0882352941176471   0.4665249610000000   
0.7941176470588237   0.3235294117647060   0.4665249610000000   
0.7352941176470589   0.5588235294117647   0.4665249610000000   
0.6764705882352942   0.7941176470588237   0.4665249610000000   
0.9705882352941181   0.6176470588235294   0.4665249610000000   
0.9117647058823534   0.8529411764705884   0.4665249610000000   
0.0000000000000001   0.0000000000000001   0.0000000000000000   
0.2352941176470588   0.0588235294117646   0.0000000000000000   
0.1764705882352942   0.2941176470588235   0.0000000000000000   
0.1176470588235295   0.5294117647058822   0.0000000000000000   
0.0588235294117647   0.7647058823529415   0.0000000000000000   
0.4705882352941176   0.1176470588235293   0.0000000000000000   
0.4117647058823529   0.3529411764705882   0.0000000000000000   
0.3529411764705883   0.5882352941176470   0.0000000000000000   
0.2941176470588235   0.8235294117647062   0.0000000000000000   
0.7058823529411766   0.1764705882352940   0.0000000000000000   
0.6470588235294119   0.4117647058823529   0.0000000000000000   
0.5882352941176472   0.6470588235294117   0.0000000000000000   
0.5294117647058822   0.8823529411764709   0.0000000000000000   
0.9411764705882356   0.2352941176470588   0.0000000000000000   
0.8823529411764709   0.4705882352941177   0.0000000000000000   
0.8235294117647062   0.7058823529411766   0.0000000000000000   
0.7647058823529415   0.9411764705882356   0.0000000000000000   
