Ba1 Ti1 O3
1.0
        5.7546720505         0.0000000000         0.0000000000
        0.0000000000         5.7884602547         0.0000000000
        0.0000000000         0.0336893554         4.0809919278
    O   Ti   Ba
    6    2    2
Direct
     0.000000000         0.482549995         0.971683979
     0.500000000         0.982550025         0.971683979
     0.755433023         0.727117002         0.482549995
     0.255433023         0.227117002         0.482549995
     0.244566992         0.727117002         0.482549995
     0.744566977         0.227117002         0.482549995
     0.000000000         0.514370978         0.514370978
     0.500000000         0.014370978         0.514370978
     0.000000000         0.000000000         0.000000000
     0.500000000         0.500000000         0.000000000
