Ba1 Ti1 O3
1.0
        4.0044569969         0.0000000000         0.0000000000
        0.0000000000         4.0044569969         0.0000000000
        0.0000000000         0.0000000000         4.2006359100
   O   Ti   Ba 
    3   1    1    
Direct
0.5	0	0.475212987
0	0.5	0.475212987
0.5	0.5	0.95471802
0.5	0.5	0.520176973
0	0	0

