str.cell                                
   1.00000000000000     
     3.8672948179140714    0.0000000000000000    0.0000000000000000
     0.0000000000000000    3.8672948179140714    0.0000000000000000
     0.0000000000000000    0.0000000000000000    4.0321616359809260
   O    Ti   Pb
     3     1     1
Direct
  0	0.5	0.398257956
0.5	0	0.398257956
0.5	0.5	0.911755967
0.5	0.5	0.466524961
0	0	0
